n_boats=80;
n_periods=20;
capacity=[9,40,34,26,29,33,35,13,6,35,8,18,14,21,28,1,1,24,12,15,36,37,26,21,17,23,26,31,36,40,11,28,41,36,42,17,31,9,7,24,42,12,16,17,17,8,1,39,40,11,13,26,43,30,30,33,33,3,13,38,30,14,8,15,13,10,39,7,35,43,7,27,5,9,5,26,7,25,5,12];
crew=[9,25,18,26,10,5,25,9,3,3,1,12,10,16,19,1,1,9,12,12,2,26,9,8,2,22,22,29,7,6,8,9,16,31,32,17,8,8,6,8,16,2,2,3,11,5,1,16,39,5,1,2,18,3,13,25,2,3,3,38,22,9,3,14,13,1,15,2,33,3,6,12,1,8,5,3,7,19,3,5];
